# stolennodes thread0 thread1 thread2 thread3 thread4 thread5 thread6 thread7 thread8 thread9 thread10 thread11 thread12 thread13 thread14 thread15
0 0 0 0 0 0 0 0 0 0 0 0 0 0 0 0 0
15 0 0 0 0 0 0 0 0 0 0 0 0 0 0 0 0
30 0 0 0 0 0 0 0 0 0 0 0 0 0 0 0 0
45 0 0 0 0 0 0 0 0 0 0 0 0 0 0 0 0
60 0 0 0 0 0 0 0 0 0 0 0 0 0 0 0 0
75 0 0 0 0 0 0 0 0 0 0 0 0 0 0 0 0
90 0 0 0 0 0 0 0 0 0 0 0 0 0 0 0 0
105 0 0 0 0 0 0 0 0 0 0 0 0 0 0 0 0
120 0 0 0 0 0 0 0 0 0 0 0 0 0 0 0 0
135 0 0 0 0 0 0 0 0 0 0 0 0 0 0 0 0
150 0 0 0 0 0 0 0 0 0 0 0 0 0 0 0 0
165 0 0 0 0 0 0 0 0 0 0 0 0 0 0 0 0
180 0 0 0 0 0 0 0 0 0 0 0 0 0 0 0 0
195 0 0 0 0 0 0 0 0 0 0 0 0 0 0 0 0
210 0 0 0 0 0 0 0 0 0 0 0 0 0 0 0 0
225 0 0 0 0 0 0 0 0 0 0 0 0 0 0 0 0
240 0 0 0 0 0 0 0 0 0 0 0 0 0 0 0 0
255 0 0 0 0 0 0 0 0 0 0 0 0 0 0 0 0
270 0 0 0 0 0 0 0 0 0 0 0 0 0 0 0 0
285 0 0 0 0 0 0 0 0 0 0 0 0 0 0 0 0
300 0 0 0 0 0 0 0 0 0 0 0 0 0 0 0 0
315 0 0 0 0 0 0 0 0 0 0 0 0 0 0 0 0
330 0 0 0 0 0 0 0 0 0 0 0 0 0 0 0 0
345 0 0 0 0 0 0 0 0 0 0 0 0 0 0 0 0
360 0 0 0 0 0 0 0 0 0 0 0 0 0 0 0 0
375 0 0 0 0 0 0 0 0 0 0 0 0 0 0 0 0
390 0 0 0 0 0 0 0 0 0 0 0 0 0 0 0 0
405 0 0 0 0 0 0 0 0 0 0 0 0 0 0 0 0
420 0 0 0 0 0 0 0 0 0 0 0 0 0 0 0 0
435 0 0 0 0 0 0 0 0 0 0 0 0 0 0 0 0
450 0 0 0 0 0 0 0 0 0 0 0 0 0 0 0 0
465 0 0 0 0 0 0 0 0 0 0 0 0 0 0 0 0
480 0 0 0 0 0 0 0 0 0 0 0 0 0 0 0 0
495 0 0 0 0 0 0 0 0 0 0 0 0 0 0 0 0
510 0 0 0 0 0 0 0 0 0 0 0 0 0 0 0 0
525 0 0 0 0 0 0 0 0 0 0 0 0 0 0 0 0
540 0 0 0 0 0 0 0 0 0 0 0 0 0 0 0 0
555 0 0 0 0 0 0 0 0 0 0 0 0 0 0 0 0
570 0 0 0 0 0 0 0 0 0 0 0 0 0 0 0 0
585 0 0 0 0 0 0 0 0 0 0 0 0 0 0 0 0
600 0 0 0 0 0 0 0 0 0 0 0 0 0 0 0 0
615 0 0 0 0 0 0 0 0 0 0 0 0 0 0 0 0
630 0 0 0 0 0 0 0 0 0 0 0 0 0 0 0 0
645 0 0 0 0 0 0 0 0 0 0 0 0 0 0 0 0
660 0 0 0 0 0 0 0 0 0 0 0 0 0 0 0 0
675 0 0 0 0 0 0 0 0 0 0 0 0 0 0 0 0
690 0 0 0 0 0 0 0 0 0 0 0 0 0 0 0 0
705 0 0 0 0 0 0 0 0 0 0 0 0 0 0 0 0
720 0 0 0 0 0 0 0 0 0 0 0 0 0 0 0 0
735 0 0 0 0 0 0 0 0 0 0 0 0 0 0 0 0
750 0 0 0 0 0 0 0 0 0 0 0 0 0 0 0 0
765 0 0 0 0 0 0 0 0 0 0 0 0 0 0 0 0
780 0 0 0 0 0 0 0 0 0 0 0 0 0 0 0 0
795 0 0 0 0 0 0 0 0 0 0 0 0 0 0 0 1
810 0 0 0 0 0 0 0 0 0 0 0 0 0 0 0 0
825 0 0 0 0 0 0 0 0 0 0 0 0 0 0 0 1
840 0 0 0 0 0 0 0 0 0 0 0 0 0 0 0 1
855 0 0 0 0 0 0 0 0 0 0 0 0 0 0 0 1
870 0 0 0 0 0 0 0 0 0 0 0 0 0 0 0 1
885 0 0 0 0 0 0 0 0 0 0 0 0 0 0 0 2
900 0 0 0 0 0 0 0 0 0 0 0 0 0 0 0 1
915 0 0 0 0 0 0 0 0 0 0 0 0 0 0 0 2
930 0 0 0 0 0 0 0 0 0 0 0 0 0 0 0 2
945 0 0 0 0 0 0 0 0 0 0 0 0 0 0 0 2
960 0 0 0 0 0 0 0 0 0 0 0 0 0 0 0 1
975 0 0 0 0 0 0 0 0 0 0 0 0 0 0 0 2
990 0 0 0 0 0 0 0 0 0 0 0 0 0 0 0 2
1005 0 0 0 0 0 0 0 0 0 0 0 0 0 0 0 1
1020 0 0 0 0 0 0 0 0 0 0 0 0 0 0 0 2
1035 0 0 0 0 0 0 0 0 0 0 0 0 0 0 0 1
1050 0 0 0 0 0 0 0 0 0 0 0 0 0 0 0 1
1065 0 0 0 0 0 0 0 0 0 0 0 0 0 0 0 1
1080 0 0 0 0 0 0 0 0 0 0 0 0 0 0 0 2
1095 0 0 0 0 0 0 0 0 0 0 0 0 0 0 0 1
1110 0 0 0 0 0 0 0 0 0 0 0 0 0 0 0 1
1125 0 0 0 0 0 0 0 0 0 0 0 0 0 0 0 1
1140 0 0 0 0 0 0 0 0 0 0 0 0 0 0 0 1
1155 0 0 0 0 0 0 0 0 0 0 0 0 0 0 0 1
1170 0 0 0 0 0 0 0 0 0 0 0 0 0 0 0 2
1185 0 0 0 0 0 0 0 0 0 0 0 0 0 0 0 1
1200 0 0 0 0 0 0 0 0 0 0 0 0 0 0 0 1
1215 0 0 0 0 0 0 0 0 0 0 0 0 0 0 0 2
1230 0 0 0 0 0 0 0 0 0 0 0 0 0 0 0 1
1245 0 0 0 0 0 0 0 0 0 0 0 0 0 0 0 1
1260 0 0 0 0 0 0 0 0 0 0 0 0 0 0 0 2
1275 0 0 0 0 0 0 0 0 0 0 0 0 0 0 0 1
1290 0 0 0 0 0 0 0 0 0 0 0 0 0 0 0 4
1305 0 0 0 0 0 0 2 0 0 0 0 0 0 0 0 1
1320 0 0 0 0 0 0 3 0 0 0 0 0 0 0 1 1
1335 0 0 0 0 0 0 3 0 0 0 0 1 0 0 1 1
1350 0 0 0 0 0 0 2 0 0 0 0 4 0 0 4 2
1365 0 0 0 0 0 0 1 0 0 0 0 5 0 0 2 2
1380 0 0 0 0 0 0 2 5 0 0 0 1 0 0 2 1
1395 10 0 6 0 0 0 15 2 0 10 8 1 0 0 15 9
1410 17 0 25 0 0 0 2 27 0 18 1 16 0 7 2 23
1425 26 43 23 25 5 0 68 10 32 60 89 54 36 63 81 46
